
Gurobi 9.5.1 (linux64) logging started Mon Apr  4 15:03:37 2022

Set parameter LogFile to value "../results/logs/log_2022_04_04_12_17.csv_12_250.log"
Gurobi Optimizer version 9.5.1 build v9.5.1rc2 (linux64)
Thread count: 8 physical cores, 8 logical processors, using up to 8 threads
Optimize a model with 17501 rows, 853632 columns and 465582 nonzeros
Model fingerprint: 0xf713b915
Variable types: 0 continuous, 853632 integer (853632 binary)
Coefficient statistics:
  Matrix range     [1e+00, 1e+01]
  Objective range  [1e+00, 1e+00]
  Bounds range     [1e+00, 1e+00]
  RHS range        [1e+00, 2e+02]
Found heuristic solution: objective 214490.00000
Presolve removed 11393 rows and 844106 columns
Presolve time: 0.47s
Presolved: 6108 rows, 9526 columns, 26965 nonzeros
Found heuristic solution: objective 215014.00000
Variable types: 0 continuous, 9526 integer (7879 binary)

Root relaxation: objective 2.158894e+05, 3970 iterations, 0.03 seconds (0.03 work units)

    Nodes    |    Current Node    |     Objective Bounds      |     Work
 Expl Unexpl |  Obj  Depth IntInf | Incumbent    BestBd   Gap | It/Node Time

     0     0 215889.353    0 1424 215014.000 215889.353  0.41%     -    0s
H    0     0                    215073.00000 215889.353  0.38%     -    0s
H    0     0                    215090.00000 215889.353  0.37%     -    0s
H    0     0                    215161.00000 215889.353  0.34%     -    0s
H    0     0                    215171.00000 215433.310  0.12%     -    1s
     0     0 215433.310    0  577 215171.000 215433.310  0.12%     -    1s
H    0     0                    215305.00000 215433.310  0.06%     -    1s
     0     0 215410.615    0  499 215305.000 215410.615  0.05%     -    1s
     0     0 215408.005    0  492 215305.000 215408.005  0.05%     -    1s
     0     0 215407.956    0  492 215305.000 215407.956  0.05%     -    1s
H    0     0                    215314.00000 215407.956  0.04%     -    1s
H    0     0                    215315.00000 215407.956  0.04%     -    1s
H    0     0                    215318.00000 215407.956  0.04%     -    1s
     0     0 215361.866    0  292 215318.000 215361.866  0.02%     -    1s
     0     0 215358.599    0  219 215318.000 215358.599  0.02%     -    1s
     0     0 215358.400    0  218 215318.000 215358.400  0.02%     -    1s
     0     0 215352.384    0  181 215318.000 215352.384  0.02%     -    1s
H    0     0                    215330.00000 215352.384  0.01%     -    1s
     0     0 215350.249    0  153 215330.000 215350.249  0.01%     -    1s
     0     0 215350.134    0  142 215330.000 215350.134  0.01%     -    1s
     0     0 215347.777    0  106 215330.000 215347.777  0.01%     -    1s
     0     0 215347.066    0   90 215330.000 215347.066  0.01%     -    1s
     0     0 215347.040    0   95 215330.000 215347.040  0.01%     -    1s
     0     0 215345.712    0   70 215330.000 215345.712  0.01%     -    1s
     0     0 215345.347    0   66 215330.000 215345.347  0.01%     -    1s
     0     0 215344.722    0   62 215330.000 215344.722  0.01%     -    1s
     0     0 215344.714    0   64 215330.000 215344.714  0.01%     -    1s
     0     0 215344.682    0   45 215330.000 215344.682  0.01%     -    1s
     0     0 215344.671    0   47 215330.000 215344.671  0.01%     -    2s
     0     0 215344.641    0   51 215330.000 215344.641  0.01%     -    2s
     0     0 215344.641    0   50 215330.000 215344.641  0.01%     -    2s
H    0     0                    215342.00000 215344.641  0.00%     -    2s
     0     0 215344.421    0  861 215342.000 215344.421  0.00%     -    2s
     0     0 215344.421    0  231 215342.000 215344.421  0.00%     -    2s
     0     0 215344.421    0  118 215342.000 215344.421  0.00%     -    2s
     0     0 215344.421    0   65 215342.000 215344.421  0.00%     -    2s
     0     0 215344.421    0   57 215342.000 215344.421  0.00%     -    2s
     0     0 215343.463    0   18 215342.000 215343.463  0.00%     -    2s
     0     0 215343.376    0   26 215342.000 215343.376  0.00%     -    2s
     0     0 215343.111    0   11 215342.000 215343.111  0.00%     -    2s
     0     0 215343.111    0   65 215342.000 215343.111  0.00%     -    2s
     0     0 215343.111    0   29 215342.000 215343.111  0.00%     -    2s
     0     0 215343.111    0   17 215342.000 215343.111  0.00%     -    2s
     0     0 215343.111    0   14 215342.000 215343.111  0.00%     -    2s
*    0     0               0    215343.00000 215343.000  0.00%     -    2s

Cutting planes:
  Gomory: 24
  Lift-and-project: 3
  Cover: 5
  Implied bound: 5
  Clique: 2
  MIR: 37
  StrongCG: 3
  GUB cover: 8
  Zero half: 4
  RLT: 5
  Relax-and-lift: 2

Explored 1 nodes (11237 simplex iterations) in 2.86 seconds (1.97 work units)
Thread count was 8 (of 8 available processors)

Solution count 10: 215343 215342 215342 ... 215314

Optimal solution found (tolerance 0.00e+00)
Best objective 2.153430000000e+05, best bound 2.153430000000e+05, gap 0.0000%
